Welcome to the CBC MILP Solver
Version: Devel (unstable)
Build Date: Feb  6 2022
command line - -import /home/danilo/psp-janniele/J30/j3040/j3040_3.lp -timeM elapsed -seconds 10800 -solve -quit (default strategy 1)
seconds was changed from 1e+08 to 10800
Continuous objective value is 8.6041 - 0.149915 seconds
Cgl0003I 0 fixed, 0 tightened bounds, 11 strengthened rows, 0 substitutions
Cgl0003I 0 fixed, 0 tightened bounds, 11 strengthened rows, 0 substitutions
Cgl0003I 0 fixed, 0 tightened bounds, 11 strengthened rows, 0 substitutions
Cgl0003I 0 fixed, 0 tightened bounds, 11 strengthened rows, 0 substitutions
Cgl0003I 0 fixed, 0 tightened bounds, 11 strengthened rows, 0 substitutions
Cgl0003I 0 fixed, 0 tightened bounds, 11 strengthened rows, 0 substitutions
Cgl0003I 0 fixed, 0 tightened bounds, 11 strengthened rows, 0 substitutions
Cgl0003I 0 fixed, 0 tightened bounds, 10 strengthened rows, 0 substitutions
Cgl0003I 0 fixed, 0 tightened bounds, 8 strengthened rows, 0 substitutions
Cgl0004I processed model has 339 rows, 1324 columns (1324 integer (1323 of which binary)) and 21725 elements
Coin3009W Conflict graph built in 0.063 seconds, density: 0.866%
Cgl0015I Clique Strengthening extended 0 cliques, 0 were dominated
Cbc0045I Cutoff increment increased from 0.0001 to 0.9999
Cbc0045I 1 integer variables out of 1324 objects (1324 integer) have cost of 1 - high priority
Cbc0045I branch on satisfied Y create fake objective Y random cost Y
Cbc0038I Initial state - 83 integers unsatisfied sum - 22.5331
Cbc0038I Pass   1: suminf.   11.75925 (58) obj. 10 iterations 168
Cbc0038I Pass   2: suminf.   10.56709 (59) obj. 10 iterations 33
Cbc0038I Pass   3: suminf.   10.78511 (55) obj. 10.3201 iterations 23
Cbc0038I Pass   4: suminf.    9.24249 (37) obj. 11 iterations 102
Cbc0038I Pass   5: suminf.    9.11579 (38) obj. 11 iterations 36
Cbc0038I Pass   6: suminf.    8.61817 (36) obj. 11 iterations 17
Cbc0038I Pass   7: suminf.    7.51333 (38) obj. 11 iterations 34
Cbc0038I Pass   8: suminf.    7.03898 (36) obj. 11 iterations 35
Cbc0038I Pass   9: suminf.    9.41635 (33) obj. 11 iterations 78
Cbc0038I Pass  10: suminf.    6.36103 (28) obj. 11 iterations 65
Cbc0038I Pass  11: suminf.    6.27618 (28) obj. 11 iterations 12
Cbc0038I Pass  12: suminf.    7.78150 (33) obj. 11 iterations 91
Cbc0038I Pass  13: suminf.    6.66170 (37) obj. 11 iterations 46
Cbc0038I Pass  14: suminf.    6.27618 (28) obj. 11 iterations 42
Cbc0038I Pass  15: suminf.   17.47798 (72) obj. 10.1782 iterations 147
Cbc0038I Pass  16: suminf.    9.25394 (37) obj. 11 iterations 98
Cbc0038I Pass  17: suminf.    9.18132 (34) obj. 11 iterations 19
Cbc0038I Pass  18: suminf.    7.77963 (33) obj. 11 iterations 22
Cbc0038I Pass  19: suminf.    8.81461 (36) obj. 11 iterations 61
Cbc0038I Pass  20: suminf.    7.36830 (35) obj. 11 iterations 30
Cbc0038I Pass  21: suminf.   11.25414 (40) obj. 11 iterations 58
Cbc0038I Pass  22: suminf.    8.79994 (39) obj. 11 iterations 29
Cbc0038I Pass  23: suminf.    8.48586 (39) obj. 11 iterations 15
Cbc0038I Pass  24: suminf.    9.48808 (39) obj. 11 iterations 49
Cbc0038I Pass  25: suminf.    8.41383 (37) obj. 11 iterations 41
Cbc0038I Pass  26: suminf.    8.01653 (37) obj. 11 iterations 6
Cbc0038I Pass  27: suminf.    6.61560 (36) obj. 11 iterations 11
Cbc0038I Pass  28: suminf.    7.94162 (31) obj. 11 iterations 41
Cbc0038I Pass  29: suminf.    6.78894 (27) obj. 11 iterations 50
Cbc0038I Pass  30: suminf.    5.74132 (25) obj. 11 iterations 13
Cbc0038I Pass  31: suminf.    7.69111 (28) obj. 11 iterations 31
Cbc0038I Pass  32: suminf.    7.17141 (28) obj. 11 iterations 21
Cbc0038I Pass  33: suminf.    7.21076 (26) obj. 11 iterations 48
Cbc0038I Pass  34: suminf.    5.52228 (23) obj. 11 iterations 72
Cbc0038I Pass  35: suminf.    5.23656 (23) obj. 11 iterations 4
Cbc0038I Pass  36: suminf.    5.18894 (23) obj. 11 iterations 1
Cbc0038I Pass  37: suminf.    8.32121 (30) obj. 11 iterations 47
Cbc0038I Pass  38: suminf.    6.63808 (26) obj. 11 iterations 35
Cbc0038I Pass  39: suminf.    7.28202 (25) obj. 11 iterations 40
Cbc0038I Pass  40: suminf.    5.31015 (23) obj. 11 iterations 30
Cbc0038I Pass  41: suminf.    4.91333 (23) obj. 11 iterations 3
Cbc0038I Pass  42: suminf.    4.86571 (23) obj. 11 iterations 1
Cbc0038I Pass  43: suminf.    8.53333 (30) obj. 11 iterations 59
Cbc0038I Pass  44: suminf.    5.22249 (27) obj. 11 iterations 47
Cbc0038I Pass  45: suminf.    5.17487 (27) obj. 11 iterations 1
Cbc0038I Pass  46: suminf.    7.52949 (26) obj. 11 iterations 59
Cbc0038I Pass  47: suminf.    6.63808 (26) obj. 11 iterations 55
Cbc0038I Pass  48: suminf.    7.28202 (25) obj. 11 iterations 38
Cbc0038I Pass  49: suminf.    5.31015 (23) obj. 11 iterations 26
Cbc0038I Pass  50: suminf.    4.91333 (23) obj. 11 iterations 3
Cbc0038I Pass  51: suminf.    4.86571 (23) obj. 11 iterations 1
Cbc0038I Pass  52: suminf.    8.70185 (30) obj. 11 iterations 52
Cbc0038I Pass  53: suminf.    5.39421 (29) obj. 11 iterations 52
Cbc0038I Pass  54: suminf.    5.34659 (29) obj. 11 iterations 1
Cbc0038I Pass  55: suminf.    8.02063 (32) obj. 11 iterations 59
Cbc0038I Pass  56: suminf.    7.11310 (32) obj. 11 iterations 51
Cbc0038I Pass  57: suminf.    7.11310 (32) obj. 11 iterations 0
Cbc0038I Pass  58: suminf.    7.82407 (31) obj. 11 iterations 38
Cbc0038I Pass  59: suminf.    7.26953 (31) obj. 11 iterations 35
Cbc0038I Pass  60: suminf.    7.66764 (31) obj. 11 iterations 37
Cbc0038I Pass  61: suminf.   19.22924 (60) obj. 11 iterations 163
Cbc0038I Pass  62: suminf.   11.48718 (47) obj. 11 iterations 144
Cbc0038I Pass  63: suminf.   10.08869 (48) obj. 11 iterations 52
Cbc0038I Pass  64: suminf.    9.63314 (43) obj. 11 iterations 20
Cbc0038I Pass  65: suminf.    9.42911 (49) obj. 11 iterations 10
Cbc0038I Pass  66: suminf.    8.81067 (41) obj. 11 iterations 30
Cbc0038I Pass  67: suminf.    7.51640 (37) obj. 11 iterations 19
Cbc0038I Pass  68: suminf.    7.59824 (35) obj. 11 iterations 25
Cbc0038I Pass  69: suminf.    7.31508 (37) obj. 11 iterations 19
Cbc0038I Pass  70: suminf.    7.31508 (37) obj. 11 iterations 6
Cbc0038I Pass  71: suminf.   17.31744 (56) obj. 11 iterations 136
Cbc0038I Pass  72: suminf.   12.40979 (52) obj. 11 iterations 96
Cbc0038I Pass  73: suminf.   12.20146 (50) obj. 11 iterations 15
Cbc0038I Pass  74: suminf.   11.25095 (45) obj. 11 iterations 34
Cbc0038I Pass  75: suminf.   10.51559 (42) obj. 11 iterations 8
Cbc0038I Pass  76: suminf.   10.09002 (42) obj. 11 iterations 24
Cbc0038I Pass  77: suminf.    9.49003 (43) obj. 11 iterations 24
Cbc0038I Pass  78: suminf.    8.89140 (36) obj. 11 iterations 16
Cbc0038I Pass  79: suminf.    7.25145 (33) obj. 11 iterations 15
Cbc0038I Pass  80: suminf.    6.96574 (33) obj. 11 iterations 3
Cbc0038I Pass  81: suminf.    6.91812 (33) obj. 11 iterations 2
Cbc0038I Pass  82: suminf.    7.35115 (34) obj. 11 iterations 7
Cbc0038I Pass  83: suminf.   15.27171 (61) obj. 11 iterations 125
Cbc0038I Pass  84: suminf.    9.64076 (43) obj. 11 iterations 114
Cbc0038I Pass  85: suminf.    9.42252 (46) obj. 11 iterations 10
Cbc0038I Pass  86: suminf.    9.14483 (45) obj. 11 iterations 2
Cbc0038I Pass  87: suminf.   11.14992 (46) obj. 11 iterations 70
Cbc0038I Pass  88: suminf.   10.96179 (46) obj. 11 iterations 17
Cbc0038I Pass  89: suminf.    8.65105 (35) obj. 11 iterations 52
Cbc0038I Pass  90: suminf.    8.53981 (39) obj. 11 iterations 20
Cbc0038I Pass  91: suminf.    9.99967 (42) obj. 11 iterations 42
Cbc0038I Pass  92: suminf.    9.99967 (42) obj. 11 iterations 18
Cbc0038I Pass  93: suminf.   11.43662 (42) obj. 11 iterations 49
Cbc0038I Pass  94: suminf.   10.61795 (39) obj. 11 iterations 34
Cbc0038I Pass  95: suminf.    9.81655 (38) obj. 11 iterations 34
Cbc0038I Pass  96: suminf.    8.39390 (33) obj. 11 iterations 24
Cbc0038I Pass  97: suminf.    8.35581 (37) obj. 11 iterations 5
Cbc0038I Pass  98: suminf.   10.18928 (38) obj. 11 iterations 41
Cbc0038I Pass  99: suminf.    8.65581 (34) obj. 11 iterations 51
Cbc0038I Pass 100: suminf.   15.96491 (51) obj. 11 iterations 139
Cbc0038I No solution found this major pass
Cbc0038I Before mini branch and bound, 1000 integers at bound fixed and 0 continuous
Cbc0038I Full problem 339 rows 1324 columns, reduced to 249 rows 290 columns
Cbc0038I Mini branch and bound did not improve solution (3.36 seconds)
Cbc0038I After 3.36 seconds - Feasibility pump exiting - took 2.07 seconds
Cbc0031I 54 added rows had average density of 56.537037
Cbc0013I At root node, 54 cuts changed objective from 8.6040956 to 10 in 10 passes
Cbc0014I Cut generator 0 (Probing) - 203 row cuts average 8.1 elements, 11 column cuts (11 active)  in 0.678 seconds - new frequency is 1
Cbc0014I Cut generator 1 (Gomory) - 37 row cuts average 292.8 elements, 0 column cuts (0 active)  in 0.254 seconds - new frequency is -100
Cbc0014I Cut generator 2 (Knapsack) - 2 row cuts average 8.0 elements, 0 column cuts (0 active)  in 0.054 seconds - new frequency is -100
Cbc0014I Cut generator 3 (Clique) - 1 row cuts average 16.0 elements, 0 column cuts (0 active)  in 0.010 seconds - new frequency is -100
Cbc0014I Cut generator 4 (OddWheel) - 0 row cuts average 0.0 elements, 0 column cuts (0 active)  in 0.051 seconds - new frequency is -100
Cbc0014I Cut generator 5 (MixedIntegerRounding2) - 181 row cuts average 76.6 elements, 0 column cuts (0 active)  in 0.066 seconds - new frequency is 1
Cbc0014I Cut generator 6 (FlowCover) - 1 row cuts average 39.0 elements, 0 column cuts (0 active)  in 0.004 seconds - new frequency is -100
Cbc0014I Cut generator 7 (TwoMirCuts) - 180 row cuts average 183.4 elements, 0 column cuts (0 active)  in 0.174 seconds - new frequency is 1
Cbc0014I Cut generator 8 (ZeroHalf) - 122 row cuts average 94.7 elements, 0 column cuts (0 active)  in 0.085 seconds - new frequency is 1
Cbc0010I After 0 nodes, 1 on tree, 1e+50 best solution, best possible 10 (5.82 seconds)
Cbc0010I After 6 nodes, 7 on tree, 1e+50 best solution, best possible 10 (6.59 seconds)
Cbc0010I After 19 nodes, 8 on tree, 1e+50 best solution, best possible 10 (7.31 seconds)
Cbc0010I After 33 nodes, 7 on tree, 1e+50 best solution, best possible 10 (8.05 seconds)
Cbc0010I After 48 nodes, 9 on tree, 1e+50 best solution, best possible 10 (8.76 seconds)
Cbc0010I After 62 nodes, 5 on tree, 1e+50 best solution, best possible 10 (9.53 seconds)
Cbc0010I After 78 nodes, 8 on tree, 1e+50 best solution, best possible 10 (10.26 seconds)
Cbc0010I After 95 nodes, 8 on tree, 1e+50 best solution, best possible 10 (10.98 seconds)
Cbc0010I After 112 nodes, 5 on tree, 1e+50 best solution, best possible 10 (11.72 seconds)
Cbc0010I After 124 nodes, 7 on tree, 1e+50 best solution, best possible 10 (12.42 seconds)
Cbc0010I After 142 nodes, 10 on tree, 1e+50 best solution, best possible 10 (13.15 seconds)
Cbc0010I After 162 nodes, 11 on tree, 1e+50 best solution, best possible 10 (13.85 seconds)
Cbc0010I After 182 nodes, 15 on tree, 1e+50 best solution, best possible 10 (14.56 seconds)
Cbc0010I After 209 nodes, 15 on tree, 1e+50 best solution, best possible 10 (15.26 seconds)
Cbc0010I After 234 nodes, 9 on tree, 1e+50 best solution, best possible 10 (15.99 seconds)
Cbc0010I After 254 nodes, 5 on tree, 1e+50 best solution, best possible 10 (16.79 seconds)
Cbc0010I After 264 nodes, 1 on tree, 1e+50 best solution, best possible 11 (17.56 seconds)
Cbc0010I After 275 nodes, 9 on tree, 1e+50 best solution, best possible 11 (18.29 seconds)
Cbc0010I After 293 nodes, 11 on tree, 1e+50 best solution, best possible 11 (19.01 seconds)
Cbc0010I After 312 nodes, 12 on tree, 1e+50 best solution, best possible 11 (19.76 seconds)
Cbc0010I After 329 nodes, 13 on tree, 1e+50 best solution, best possible 11 (20.47 seconds)
Cbc0016I Integer solution of 11 found by strong branching after 43915 iterations and 340 nodes (20.85 seconds)
Cbc0001I Search completed - best objective 11, took 43980 iterations and 340 nodes (20.86 seconds)
Cbc0032I Strong branching done 1144 times (9437 iterations), fathomed 5 nodes and fixed 5 variables
Cbc0035I Maximum depth 22, 0 variables fixed on reduced cost
Cuts at root node changed objective from 8.6041 to 10
Probing was tried 258 times and created 1596 cuts of which 0 were active after adding rounds of cuts (1.48265 seconds)
Gomory was tried 10 times and created 37 cuts of which 0 were active after adding rounds of cuts (0.253683 seconds)
Knapsack was tried 10 times and created 2 cuts of which 0 were active after adding rounds of cuts (0.053879 seconds)
Clique was tried 10 times and created 1 cuts of which 0 were active after adding rounds of cuts (0.010161 seconds)
OddWheel was tried 10 times and created 0 cuts of which 0 were active after adding rounds of cuts (0.050706 seconds)
MixedIntegerRounding2 was tried 257 times and created 2823 cuts of which 0 were active after adding rounds of cuts (1.49888 seconds)
FlowCover was tried 10 times and created 1 cuts of which 0 were active after adding rounds of cuts (0.003877 seconds)
TwoMirCuts was tried 257 times and created 586 cuts of which 0 were active after adding rounds of cuts (0.586006 seconds)
ZeroHalf was tried 257 times and created 1181 cuts of which 0 were active after adding rounds of cuts (1.34656 seconds)

Result - Optimal solution found
Objective value:                11
Enumerated nodes:               340
Total iterations:               43980
Time (CPU seconds):             20.9192
Time (Wallclock seconds):       20.8999
Total time (CPU seconds):       21.0045   (Wallclock seconds):       20.9429
